73 72 74 72 73 70 74 73 74 70 71 73 71 74 74 72 71 73 74 72 
70 70 74 70 71 70 73 70 71 70 74 73 73 71 71 71 74 71 74 72 
67 70 76 67 76 76 67 77 73 72 67 74 73 70 68 72 70 77 72 74 
69 74 71 69 70 74 71 72 73 74 73 69 73 69 73 71 70 73 71 71 
70 70 74 70 73 74 74 71 71 70 73 73 72 73 73 70 73 71 73 71 
73 71 71 72 75 69 70 72 68 75 70 69 74 72 68 73 70 71 76 73 
75 73 69 71 69 69 75 71 73 74 69 70 75 73 72 73 71 71 69 70 
71 73 73 72 71 73 72 73 73 73 72 72 73 71 71 73 71 71 73 73 
70 71 69 69 75 69 74 70 69 72 71 75 72 73 73 73 69 72 70 75 
70 72 70 70 70 70 72 70 70 74 71 72 74 72 74 73 70 72 71 70 
76 73 75 68 69 75 70 75 73 72 75 69 72 74 74 70 71 70 72 73 
73 71 71 74 70 71 74 71 74 71 73 73 71 73 74 70 71 71 72 73 
72 74 76 77 69 75 76 72 68 76 76 68 75 68 72 67 71 77 77 72 
75 76 72 68 72 73 69 75 73 69 73 72 76 68 74 75 76 74 73 74 
72 70 69 68 71 72 73 71 75 69 68 72 72 74 71 76 76 68 75 74 
73 74 72 74 72 69 72 71 70 72 72 70 72 71 73 74 70 73 70 71 
73 74 75 74 72 70 74 74 68 69 72 75 70 75 74 75 69 72 71 69 
73 70 71 70 76 73 77 72 75 77 70 76 68 75 74 70 67 75 72 68 
70 70 73 69 71 72 71 76 72 75 69 75 69 76 71 77 74 67 67 71 
69 72 72 72 74 70 73 70 75 73 71 74 69 71 71 72 74 71 73 74 
67 76 69 75 72 68 73 71 74 70 76 69 70 72 70 77 75 73 70 67 
70 68 72 75 75 72 70 68 75 75 69 68 70 68 76 75 71 68 73 76 
70 72 72 71 75 67 72 77 69 77 77 69 75 76 67 73 71 68 67 74 
72 69 72 75 74 70 75 73 69 70 73 72 71 71 72 72 74 72 75 71 
72 72 73 72 72 71 73 71 73 72 71 73 72 71 73 71 72 72 71 73 
75 68 72 76 76 68 67 68 76 68 73 76 68 73 67 70 76 76 68 68 
76 71 76 68 75 70 68 71 72 69 70 76 74 73 70 73 73 76 70 72 
75 70 74 74 75 71 73 71 70 70 70 73 72 69 74 73 75 70 74 71 
69 76 74 72 71 76 76 75 68 72 70 69 70 73 71 74 72 73 72 74 
67 67 71 77 67 68 77 70 74 76 75 69 68 68 72 76 73 68 77 68 
75 71 68 76 76 75 74 74 72 76 71 75 72 68 76 70 74 73 75 68 
73 71 72 72 72 72 71 73 72 73 73 73 71 72 73 72 73 73 72 73 
70 71 74 70 71 74 72 74 73 74 73 74 72 71 72 72 71 71 73 70 
71 73 71 71 72 71 73 72 71 73 71 71 73 72 71 71 71 71 72 73 
70 70 72 69 68 70 72 69 74 69 69 69 70 75 75 74 70 68 75 72 
73 72 70 74 74 69 74 73 73 72 69 73 70 73 75 69 69 71 74 73 
69 76 71 72 72 68 68 73 72 72 69 70 74 68 74 76 69 69 76 74 
70 73 68 74 72 69 68 76 75 69 71 76 71 76 68 74 71 68 70 74 
74 70 74 72 72 73 70 73 73 70 72 71 74 72 71 71 73 70 70 70 
72 73 71 73 71 73 71 72 71 71 73 72 71 73 73 72 72 72 73 72 
72 73 70 70 70 72 70 74 75 76 72 67 69 76 77 68 67 70 67 73 
67 67 72 70 74 74 75 70 73 70 77 76 77 77 74 70 73 67 77 70 
70 70 73 74 70 73 70 72 71 74 72 73 70 70 71 72 70 71 73 71 
77 75 77 68 69 77 67 69 68 76 67 76 74 72 73 71 76 75 69 76 
74 69 72 75 76 72 73 71 69 71 69 68 74 72 72 69 76 72 73 76 
70 72 70 70 71 74 74 71 73 73 71 72 72 74 70 74 70 73 74 70 
71 75 77 74 68 74 75 76 71 75 73 69 71 76 68 71 67 74 69 68 
71 71 72 73 74 71 70 71 71 72 72 74 71 72 70 71 74 74 74 71 
70 74 73 74 70 70 74 73 70 73 70 74 73 70 73 71 72 72 70 74 
74 73 74 70 71 73 72 71 72 71 72 71 72 73 71 71 70 73 71 70 
71 74 68 69 71 76 73 71 72 69 68 70 70 75 73 71 68 69 72 75 
71 74 74 75 71 74 70 70 72 75 73 73 70 75 72 71 74 74 71 70 
69 69 74 72 71 74 69 69 69 75 69 75 75 70 69 69 71 70 73 74 
74 73 75 74 70 71 70 70 70 71 71 69 72 70 74 71 75 71 71 74 
70 70 70 72 74 70 74 73 71 72 70 73 71 70 70 72 72 74 74 73 
72 76 67 71 71 74 67 77 75 71 67 73 67 71 70 68 68 71 72 74 
69 70 69 76 75 71 70 76 76 76 68 70 74 72 68 76 69 73 70 74 
74 74 73 73 73 72 71 71 74 71 71 74 70 71 71 71 71 72 72 72 
71 71 76 76 72 68 73 77 73 70 72 77 70 73 68 75 70 76 68 73 
72 75 74 70 72 73 70 71 74 75 75 74 72 72 72 71 72 74 75 72 
71 75 74 70 73 75 69 74 69 75 75 71 74 71 73 71 75 74 75 69 
77 71 77 68 75 70 75 74 72 69 76 67 69 68 68 77 76 68 74 76 
71 76 69 69 75 68 68 72 70 68 68 69 72 68 76 69 71 71 74 73 
73 71 72 71 71 73 73 72 71 71 73 73 73 71 71 71 71 73 73 73 
71 72 72 74 74 71 72 72 71 74 74 70 74 73 70 74 71 72 73 70 
73 72 74 70 70 74 74 70 73 72 73 72 70 74 70 74 70 73 73 73 
70 69 70 69 75 75 73 71 72 71 71 74 70 69 70 75 72 72 69 72 
72 71 73 74 71 70 71 71 71 73 70 73 74 71 70 72 70 74 72 73 
70 72 70 68 76 70 74 69 76 70 71 74 68 76 70 74 69 76 75 74 
72 73 72 72 74 72 71 70 70 73 73 72 70 72 73 73 74 74 70 70 
73 73 75 70 68 68 75 68 76 69 74 76 72 72 74 74 75 75 74 76 
71 71 73 72 73 73 71 73 71 71 71 72 73 72 72 71 73 73 72 73 
74 74 69 72 75 70 74 73 71 69 71 75 74 70 72 70 72 75 72 73 
70 74 72 72 72 74 72 70 74 73 70 73 74 71 73 70 74 73 72 73 
72 73 71 73 71 73 72 72 72 70 72 72 74 74 74 73 73 73 72 74 
72 74 70 70 70 70 72 72 71 73 72 71 71 71 70 73 73 71 74 70 
71 70 70 71 74 72 73 72 70 72 73 71 71 70 74 73 70 74 72 74 
74 69 71 73 72 75 75 71 70 73 69 73 72 75 73 69 69 71 70 75 
73 69 73 75 69 71 72 69 70 69 69 75 75 73 72 73 74 69 69 71 
71 70 74 70 70 70 73 71 70 73 72 71 71 73 70 70 73 73 74 74 
67 74 73 72 74 75 67 76 70 72 77 70 74 69 70 69 72 67 75 69 
74 70 71 74 74 69 75 70 69 69 69 74 74 74 70 75 74 70 71 73 
68 72 69 68 76 74 68 72 70 71 70 72 68 71 76 68 69 72 76 70 
71 73 72 72 73 73 71 73 72 71 71 71 73 73 73 71 73 72 71 72 
73 73 72 73 72 73 73 73 72 73 72 72 73 73 71 71 72 73 72 71 
70 70 70 73 73 69 75 74 73 76 69 75 68 74 68 70 68 69 72 72 
74 75 69 71 71 70 71 70 71 71 75 72 68 70 74 71 70 76 71 71 
75 69 73 73 70 71 70 69 73 71 70 74 71 73 72 72 72 73 71 73 
72 72 72 72 71 71 72 72 73 72 72 71 71 72 72 73 73 71 71 72 
72 70 74 74 71 72 72 73 70 70 71 73 74 72 72 74 70 70 73 73 
71 74 74 73 72 72 71 70 73 71 71 72 72 70 74 70 72 71 72 74 
71 71 73 73 73 71 72 72 72 72 73 73 71 72 71 73 71 71 71 71 
73 73 72 74 72 72 71 74 72 73 74 72 72 73 70 71 70 70 71 72 
70 72 69 73 73 71 71 75 74 70 73 72 74 73 74 74 69 74 69 71 
69 73 75 72 73 72 75 75 72 73 73 74 74 75 70 70 74 71 71 70 
73 73 71 71 72 72 72 72 73 72 71 71 72 71 71 72 72 72 72 71 
71 75 76 74 74 71 70 70 68 68 75 70 75 68 71 71 72 68 73 70 
72 72 74 72 70 72 74 74 74 73 74 71 74 74 74 72 72 71 70 70 
72 75 73 76 68 70 71 73 72 70 69 71 68 72 71 69 69 73 72 70 
72 71 68 72 68 70 73 68 70 69 72 70 75 70 74 75 76 71 74 71 